2025-11-08 21:43:14,881 INFO - Solving the line planning problem with ILP
2025-11-08 21:43:14,882 INFO - Set parameter Username
2025-11-08 21:43:14,882 INFO - Set parameter LicenseID to value 2711114
2025-11-08 21:43:14,884 INFO - Academic license - for non-commercial use only - expires 2026-09-20
2025-11-08 21:43:14,885 INFO - Set parameter TimeLimit to value 3600
2025-11-08 21:43:42,916 INFO - Set parameter LogFile to value "Results\100_percent\stage_1\budget_10000\gurobi.log"
2025-11-08 21:43:53,828 INFO - Gurobi Optimizer version 12.0.3 build v12.0.3rc0 (win64 - Windows 11+.0 (26200.2))
2025-11-08 21:43:53,828 INFO - 
2025-11-08 21:43:53,828 INFO - CPU model: Intel(R) Core(TM) Ultra 7 265K, instruction set [SSE2|AVX|AVX2]
2025-11-08 21:43:53,828 INFO - Thread count: 20 physical cores, 20 logical processors, using up to 20 threads
2025-11-08 21:43:53,829 INFO - 
2025-11-08 21:43:53,829 INFO - Non-default parameters:
2025-11-08 21:43:53,829 INFO - TimeLimit  3600
2025-11-08 21:43:53,829 INFO - 
2025-11-08 21:43:53,829 INFO - Optimize a model with 29203 rows, 2449703 columns and 17785935 nonzeros
2025-11-08 21:43:53,913 INFO - Model fingerprint: 0x9df72046
2025-11-08 21:43:53,914 INFO - Variable types: 0 continuous, 2449703 integer (2449703 binary)
2025-11-08 21:43:53,951 INFO - Coefficient statistics:
2025-11-08 21:43:53,951 INFO -   Matrix range     [1e+00, 1e+12]
2025-11-08 21:43:53,951 INFO -   Objective range  [1e+00, 1e+00]
2025-11-08 21:43:53,952 INFO -   Bounds range     [1e+00, 1e+00]
2025-11-08 21:43:53,952 INFO -   RHS range        [1e+00, 1e+04]
2025-11-08 21:43:53,952 INFO - Warning: Model contains large matrix coefficients
2025-11-08 21:43:53,952 INFO -          Consider reformulating model or setting NumericFocus parameter
2025-11-08 21:43:53,952 INFO -          to avoid numerical issues.
2025-11-08 21:43:54,134 INFO - Found heuristic solution: objective 45.0000000
2025-11-08 21:43:59,700 INFO - Presolve removed 491 rows and 352 columns (presolve time = 5s)...
2025-11-08 21:44:04,563 INFO - Presolve removed 491 rows and 352 columns (presolve time = 10s)...
2025-11-08 21:44:09,580 INFO - Presolve removed 491 rows and 352 columns (presolve time = 15s)...
2025-11-08 21:44:14,554 INFO - Presolve removed 491 rows and 352 columns (presolve time = 20s)...
2025-11-08 21:44:19,950 INFO - Presolve removed 491 rows and 352 columns (presolve time = 25s)...
2025-11-08 21:44:25,112 INFO - Presolve removed 491 rows and 352 columns (presolve time = 31s)...
2025-11-08 21:44:29,870 INFO - Presolve removed 491 rows and 352 columns (presolve time = 35s)...
2025-11-08 21:44:35,735 INFO - Presolve removed 491 rows and 352 columns (presolve time = 41s)...
2025-11-08 21:44:39,555 INFO - Presolve removed 491 rows and 352 columns (presolve time = 45s)...
2025-11-08 21:44:49,707 INFO - Presolve removed 491 rows and 352 columns (presolve time = 55s)...
2025-11-08 21:44:51,589 INFO - Presolve removed 491 rows and 352 columns
2025-11-08 21:44:51,589 INFO - Presolve time: 57.04s
2025-11-08 21:44:51,650 INFO - Presolved: 28712 rows, 2449351 columns, 17773226 nonzeros
2025-11-08 21:44:53,627 INFO - Variable types: 0 continuous, 2449351 integer (2449277 binary)
2025-11-08 21:44:58,346 INFO - Deterministic concurrent LP optimizer: primal simplex, dual simplex, and barrier
2025-11-08 21:44:58,347 INFO - Showing barrier log only...
2025-11-08 21:44:58,347 INFO - 
2025-11-08 21:44:59,699 INFO - Root barrier log...
2025-11-08 21:44:59,699 INFO - 
2025-11-08 21:45:05,608 INFO - Elapsed ordering time = 5s
2025-11-08 21:45:06,575 INFO - Ordering time: 5.97s
2025-11-08 21:45:06,579 INFO - 
2025-11-08 21:45:06,579 INFO - Barrier performed 0 iterations in 72.75 seconds (87.00 work units)
2025-11-08 21:45:06,579 INFO - Barrier solve interrupted - model solved by another algorithm
2025-11-08 21:45:06,579 INFO - 
2025-11-08 21:45:06,616 INFO - Concurrent spin time: 0.47s
2025-11-08 21:45:06,616 INFO - 
2025-11-08 21:45:06,616 INFO - Solved with primal simplex
2025-11-08 21:45:07,600 INFO - 
2025-11-08 21:45:07,600 INFO - Root simplex log...
2025-11-08 21:45:07,600 INFO - 
2025-11-08 21:45:07,600 INFO - Iteration    Objective       Primal Inf.    Dual Inf.      Time
2025-11-08 21:45:07,600 INFO -    19789    4.9538891e+02   0.000000e+00   0.000000e+00     74s
2025-11-08 21:45:07,602 INFO - 
2025-11-08 21:45:07,602 INFO - Root relaxation: objective 4.953889e+02, 19789 iterations, 13.63 seconds (13.15 work units)
2025-11-08 21:45:12,615 INFO - 
2025-11-08 21:45:12,615 INFO -     Nodes    |    Current Node    |     Objective Bounds      |     Work
2025-11-08 21:45:12,615 INFO -  Expl Unexpl |  Obj  Depth IntInf | Incumbent    BestBd   Gap | It/Node Time
2025-11-08 21:45:12,615 INFO - 
2025-11-08 21:45:12,615 INFO -      0     0  495.38891    0  199   45.00000  495.38891  1001%     -   78s
2025-11-08 21:45:14,324 INFO - H    0     0                     123.0000000  495.38891   303%     -   80s
2025-11-08 21:45:14,436 INFO - H    0     0                     125.0000000  495.38891   296%     -   80s
2025-11-08 21:45:14,554 INFO - H    0     0                     135.0000000  495.38891   267%     -   80s
2025-11-08 21:45:14,671 INFO - H    0     0                     152.0000000  495.38891   226%     -   80s
2025-11-08 21:46:01,282 INFO - H    0     0                     158.0000000  495.38891   214%     -  127s
2025-11-08 21:46:13,168 INFO - H    0     0                     306.0000000  495.38891  61.9%     -  139s
2025-11-08 21:46:13,863 INFO - H    0     0                     307.0000000  495.38891  61.4%     -  140s
2025-11-08 21:46:19,661 INFO - H    0     0                     319.0000000  495.38891  55.3%     -  145s
2025-11-08 21:46:40,630 INFO - H    0     0                     322.0000000  495.38891  53.8%     -  166s
2025-11-08 21:46:41,946 INFO - H    0     0                     323.0000000  495.38891  53.4%     -  168s
2025-11-08 21:46:42,853 INFO - H    0     0                     324.0000000  495.38891  52.9%     -  169s
2025-11-08 21:47:13,663 INFO -      0     0  439.80008    0  500  324.00000  439.80008  35.7%     -  199s
2025-11-08 21:48:49,271 INFO -      0     0  439.17266    0  560  324.00000  439.17266  35.5%     -  295s
2025-11-08 21:48:51,387 INFO -      0     0  439.14619    0  556  324.00000  439.14619  35.5%     -  297s
2025-11-08 21:48:53,365 INFO -      0     0  439.14606    0  555  324.00000  439.14606  35.5%     -  299s
2025-11-08 21:49:30,184 INFO -      0     0  408.45768    0  677  324.00000  408.45768  26.1%     -  336s
2025-11-08 21:49:45,935 INFO -      0     0  405.54764    0  623  324.00000  405.54764  25.2%     -  352s
2025-11-08 21:49:48,493 INFO -      0     0  405.15457    0  655  324.00000  405.15457  25.0%     -  354s
2025-11-08 21:49:51,209 INFO -      0     0  405.15249    0  652  324.00000  405.15249  25.0%     -  357s
2025-11-08 21:50:28,655 INFO -      0     0  389.50059    0  611  324.00000  389.50059  20.2%     -  394s
2025-11-08 21:50:42,254 INFO -      0     0  387.52380    0  626  324.00000  387.52380  19.6%     -  408s
2025-11-08 21:50:44,995 INFO -      0     0  387.46027    0  618  324.00000  387.46027  19.6%     -  411s
2025-11-08 21:50:47,028 INFO -      0     0  387.45668    0  619  324.00000  387.45668  19.6%     -  413s
2025-11-08 21:51:21,346 INFO -      0     0  374.10464    0  752  324.00000  374.10464  15.5%     -  447s
2025-11-08 21:51:37,156 INFO -      0     0  373.06830    0  820  324.00000  373.06830  15.1%     -  463s
2025-11-08 21:51:40,298 INFO -      0     0  372.98472    0  776  324.00000  372.98472  15.1%     -  466s
2025-11-08 21:51:43,414 INFO -      0     0  372.97277    0  813  324.00000  372.97277  15.1%     -  469s
2025-11-08 21:54:00,187 INFO -      0     0     cutoff    0       324.00000  324.00000  0.00%     -  606s
2025-11-08 21:54:00,258 INFO - 
2025-11-08 21:54:00,258 INFO - Cutting planes:
2025-11-08 21:54:00,258 INFO -   Cover: 1397
2025-11-08 21:54:00,258 INFO -   Clique: 4431
2025-11-08 21:54:00,258 INFO -   MIR: 72
2025-11-08 21:54:00,258 INFO -   StrongCG: 28
2025-11-08 21:54:00,258 INFO -   Zero half: 12
2025-11-08 21:54:00,258 INFO -   Relax-and-lift: 239
2025-11-08 21:54:00,543 INFO - 
2025-11-08 21:54:00,543 INFO - Explored 1 nodes (35296 simplex iterations) in 606.71 seconds (660.05 work units)
2025-11-08 21:54:00,543 INFO - Thread count was 20 (of 20 available processors)
2025-11-08 21:54:00,543 INFO - 
2025-11-08 21:54:00,543 INFO - Solution count 10: 324 323 322 ... 125
2025-11-08 21:54:00,543 INFO - 
2025-11-08 21:54:00,543 INFO - Optimal solution found (tolerance 1.00e-04)
2025-11-08 21:54:00,585 INFO - Best objective 3.240000000000e+02, best bound 3.240000000000e+02, gap 0.0000%
2025-11-08 21:54:00,820 INFO - Execution time: 606.991507768631
2025-11-08 21:54:00,820 INFO - Final solution: 324.0
2025-11-08 21:54:01,562 INFO - Exported used lines to Results\100_percent\stage_1\budget_10000\used_lines_modified.csv
2025-11-08 21:54:02,826 INFO - Exported passenger assignments to Results\100_percent\stage_1\budget_10000\passenger_assignments_modified.csv
2025-11-08 21:57:35,949 INFO - Exported flows to Results\100_percent\stage_1\budget_10000\flows_modified.csv
